Instance0
Gap





22.36%
21.66%
16.37%
15.56%
15.09%
9.54%
9.54%
9.54%
8.97%
8.50%
7.75%
6.93%
6.48%
6.10%
5.90%
5.41%
4.58%
3.54%
3.38%
3.27%
3.16%
3.01%
2.95%
2.93%
2.73%
2.67%
2.57%
2.09%
CPXPARAM_MIP_Cuts_CPXPARAM_MIP_Cuts_Gomory-CPXPARAM_MIP_Cuts_LiftProj-CPXPARAM_MIP_Cuts_Covers 0
Instance1
CPXPARAM_MIP_Cuts_CPXPARAM_MIP_Cuts_Gomory-CPXPARAM_MIP_Cuts_LiftProj-CPXPARAM_MIP_Cuts_Covers 17
Instance2
CPXPARAM_MIP_Cuts_CPXPARAM_MIP_Cuts_Gomory-CPXPARAM_MIP_Cuts_LiftProj-CPXPARAM_MIP_Cuts_Covers 1
Instance3
Gap



69.73%
67.46%
65.86%
63.55%
63.35%
63.24%
63.09%
62.32%
61.75%
59.46%
57.99%
57.76%
55.66%
51.54%
50.45%
49.06%
48.59%
47.90%
47.66%
47.65%
47.58%
46.26%
45.04%
44.20%
44.06%
42.81%
41.88%
41.64%
41.63%
41.62%
38.48%
CPXPARAM_MIP_Cuts_CPXPARAM_MIP_Cuts_Gomory-CPXPARAM_MIP_Cuts_LiftProj-CPXPARAM_MIP_Cuts_Covers 0
Instance4
CPXPARAM_MIP_Cuts_CPXPARAM_MIP_Cuts_Gomory-CPXPARAM_MIP_Cuts_LiftProj-CPXPARAM_MIP_Cuts_Covers 18
Instance5
CPXPARAM_MIP_Cuts_CPXPARAM_MIP_Cuts_Gomory-CPXPARAM_MIP_Cuts_LiftProj-CPXPARAM_MIP_Cuts_Covers 0
Instance6
Gap



0.35%
0.35%
0.35%
0.35%
0.35%
0.18%
CPXPARAM_MIP_Cuts_CPXPARAM_MIP_Cuts_Gomory-CPXPARAM_MIP_Cuts_LiftProj-CPXPARAM_MIP_Cuts_Covers 0
Instance7
CPXPARAM_MIP_Cuts_CPXPARAM_MIP_Cuts_Gomory-CPXPARAM_MIP_Cuts_LiftProj-CPXPARAM_MIP_Cuts_Covers 0
Instance8
CPXPARAM_MIP_Cuts_CPXPARAM_MIP_Cuts_Gomory-CPXPARAM_MIP_Cuts_LiftProj-CPXPARAM_MIP_Cuts_Covers 5
Instance9
Gap

0.00%
0
CPXPARAM_MIP_Cuts_CPXPARAM_MIP_Cuts_Gomory-CPXPARAM_MIP_Cuts_LiftProj-CPXPARAM_MIP_Cuts_Covers 0
Instance10
CPXPARAM_MIP_Cuts_CPXPARAM_MIP_Cuts_Gomory-CPXPARAM_MIP_Cuts_LiftProj-CPXPARAM_MIP_Cuts_Covers 0
Instance11
CPXPARAM_MIP_Cuts_CPXPARAM_MIP_Cuts_Gomory-CPXPARAM_MIP_Cuts_LiftProj-CPXPARAM_MIP_Cuts_Covers 0
Instance12
Gap



6.27%
6.27%
6.27%
5.34%
5.20%
4.70%
4.59%
4.54%
4.46%
4.40%
4.12%
3.41%
2.91%
2.56%
2.40%
1.97%
0.34%
0
CPXPARAM_MIP_Cuts_CPXPARAM_MIP_Cuts_Gomory-CPXPARAM_MIP_Cuts_LiftProj-CPXPARAM_MIP_Cuts_Covers 0
Instance13
CPXPARAM_MIP_Cuts_CPXPARAM_MIP_Cuts_Gomory-CPXPARAM_MIP_Cuts_LiftProj-CPXPARAM_MIP_Cuts_Covers 5
Instance14
CPXPARAM_MIP_Cuts_CPXPARAM_MIP_Cuts_Gomory-CPXPARAM_MIP_Cuts_LiftProj-CPXPARAM_MIP_Cuts_Covers 0
Instance15
Gap













57.85%
57.05%
56.26%
54.83%
52.71%
52.69%
52.55%
50.85%
49.58%
48.17%
46.24%
44.19%
43.94%
43.05%
41.88%
38.73%
38.43%
35.74%
34.24%
33.96%
32.40%
30.98%
30.88%
29.78%
28.92%
25.30%
25.08%
24.40%
23.66%
23.66%
23.32%
22.25%
21.36%
15.81%
15.81%
15.81%
15.81%
12.62%
6.31%
6.01%
4.56%
4.49%
4.43%
4.17%
CPXPARAM_MIP_Cuts_CPXPARAM_MIP_Cuts_Gomory-CPXPARAM_MIP_Cuts_LiftProj-CPXPARAM_MIP_Cuts_Covers 1
Instance16
CPXPARAM_MIP_Cuts_CPXPARAM_MIP_Cuts_Gomory-CPXPARAM_MIP_Cuts_LiftProj-CPXPARAM_MIP_Cuts_Covers 10
Instance17
CPXPARAM_MIP_Cuts_CPXPARAM_MIP_Cuts_Gomory-CPXPARAM_MIP_Cuts_LiftProj-CPXPARAM_MIP_Cuts_Covers 4
Instance18
Gap
111.50%
92.96%
0.13%
0.13%
0.13%
0.13%
CPXPARAM_MIP_Cuts_CPXPARAM_MIP_Cuts_Gomory-CPXPARAM_MIP_Cuts_LiftProj-CPXPARAM_MIP_Cuts_Covers 0
Instance19
CPXPARAM_MIP_Cuts_CPXPARAM_MIP_Cuts_Gomory-CPXPARAM_MIP_Cuts_LiftProj-CPXPARAM_MIP_Cuts_Covers 0
Instance20
CPXPARAM_MIP_Cuts_CPXPARAM_MIP_Cuts_Gomory-CPXPARAM_MIP_Cuts_LiftProj-CPXPARAM_MIP_Cuts_Covers 0
Instance21
Gap

23.59%
23.59%
23.59%
23.59%
CPXPARAM_MIP_Cuts_CPXPARAM_MIP_Cuts_Gomory-CPXPARAM_MIP_Cuts_LiftProj-CPXPARAM_MIP_Cuts_Covers 0
Instance22
CPXPARAM_MIP_Cuts_CPXPARAM_MIP_Cuts_Gomory-CPXPARAM_MIP_Cuts_LiftProj-CPXPARAM_MIP_Cuts_Covers 1
Instance23
CPXPARAM_MIP_Cuts_CPXPARAM_MIP_Cuts_Gomory-CPXPARAM_MIP_Cuts_LiftProj-CPXPARAM_MIP_Cuts_Covers 4
Instance24
Gap






2.62%
2.62%
2.62%
2.48%
2.39%
2.33%
2.29%
2.27%
2.07%
2.07%
2.06%
1.80%
1.72%
1.51%
1.49%
1.48%
1.47%
1.02%
CPXPARAM_MIP_Cuts_CPXPARAM_MIP_Cuts_Gomory-CPXPARAM_MIP_Cuts_LiftProj-CPXPARAM_MIP_Cuts_Covers 0
Instance25
CPXPARAM_MIP_Cuts_CPXPARAM_MIP_Cuts_Gomory-CPXPARAM_MIP_Cuts_LiftProj-CPXPARAM_MIP_Cuts_Covers 12
Instance26
CPXPARAM_MIP_Cuts_CPXPARAM_MIP_Cuts_Gomory-CPXPARAM_MIP_Cuts_LiftProj-CPXPARAM_MIP_Cuts_Covers 0
Instance27
Gap



























19.71%
19.71%
19.71%
18.99%
18.59%
18.41%
18.28%
18.19%
18.19%
18.19%
17.99%
CPXPARAM_MIP_Cuts_CPXPARAM_MIP_Cuts_Gomory-CPXPARAM_MIP_Cuts_LiftProj-CPXPARAM_MIP_Cuts_Covers 2
Instance28
CPXPARAM_MIP_Cuts_CPXPARAM_MIP_Cuts_Gomory-CPXPARAM_MIP_Cuts_LiftProj-CPXPARAM_MIP_Cuts_Covers 14
Instance29
CPXPARAM_MIP_Cuts_CPXPARAM_MIP_Cuts_Gomory-CPXPARAM_MIP_Cuts_LiftProj-CPXPARAM_MIP_Cuts_Covers 2
Instance30
Gap



0.01%
CPXPARAM_MIP_Cuts_CPXPARAM_MIP_Cuts_Gomory-CPXPARAM_MIP_Cuts_LiftProj-CPXPARAM_MIP_Cuts_Covers 0
Instance31
CPXPARAM_MIP_Cuts_CPXPARAM_MIP_Cuts_Gomory-CPXPARAM_MIP_Cuts_LiftProj-CPXPARAM_MIP_Cuts_Covers 2
Instance32
CPXPARAM_MIP_Cuts_CPXPARAM_MIP_Cuts_Gomory-CPXPARAM_MIP_Cuts_LiftProj-CPXPARAM_MIP_Cuts_Covers 4
Instance33
Gap



0.02%
0.02%
0.02%
0
CPXPARAM_MIP_Cuts_CPXPARAM_MIP_Cuts_Gomory-CPXPARAM_MIP_Cuts_LiftProj-CPXPARAM_MIP_Cuts_Covers 0
Instance34
CPXPARAM_MIP_Cuts_CPXPARAM_MIP_Cuts_Gomory-CPXPARAM_MIP_Cuts_LiftProj-CPXPARAM_MIP_Cuts_Covers 0
Instance35
CPXPARAM_MIP_Cuts_CPXPARAM_MIP_Cuts_Gomory-CPXPARAM_MIP_Cuts_LiftProj-CPXPARAM_MIP_Cuts_Covers 2
Instance36
Gap


















16.60%
16.59%
16.52%
8.96%
8.96%
8.96%
8.86%
8.49%
7.68%
7.42%
7.33%
7.32%
7.31%
7.29%
7.28%
7.26%
7.25%
7.04%
6.71%
6.66%
6.61%
6.56%
6.46%
6.31%
6.27%
6.26%
6.12%
CPXPARAM_MIP_Cuts_CPXPARAM_MIP_Cuts_Gomory-CPXPARAM_MIP_Cuts_LiftProj-CPXPARAM_MIP_Cuts_Covers 0
Instance37
CPXPARAM_MIP_Cuts_CPXPARAM_MIP_Cuts_Gomory-CPXPARAM_MIP_Cuts_LiftProj-CPXPARAM_MIP_Cuts_Covers 17
Instance38
CPXPARAM_MIP_Cuts_CPXPARAM_MIP_Cuts_Gomory-CPXPARAM_MIP_Cuts_LiftProj-CPXPARAM_MIP_Cuts_Covers 2
Instance39
Gap

37.35%
36.94%
34.33%
32.94%
31.71%
30.95%
30.18%
27.09%
25.06%
24.70%
24.62%
24.40%
23.98%
23.75%
23.42%
23.29%
23.02%
22.46%
22.20%
22.20%
20.67%
20.28%
19.56%
19.56%
19.42%
19.38%
18.97%
18.47%
18.07%
17.78%
17.70%
17.64%
17.35%
17.33%
16.45%
CPXPARAM_MIP_Cuts_CPXPARAM_MIP_Cuts_Gomory-CPXPARAM_MIP_Cuts_LiftProj-CPXPARAM_MIP_Cuts_Covers 0
Instance40
CPXPARAM_MIP_Cuts_CPXPARAM_MIP_Cuts_Gomory-CPXPARAM_MIP_Cuts_LiftProj-CPXPARAM_MIP_Cuts_Covers 15
Instance41
CPXPARAM_MIP_Cuts_CPXPARAM_MIP_Cuts_Gomory-CPXPARAM_MIP_Cuts_LiftProj-CPXPARAM_MIP_Cuts_Covers 0
Instance42
Gap

1.86%
1.86%
1.86%
1.86%
1.86%
1.86%
1.40%
CPXPARAM_MIP_Cuts_CPXPARAM_MIP_Cuts_Gomory-CPXPARAM_MIP_Cuts_LiftProj-CPXPARAM_MIP_Cuts_Covers 0
Instance43
CPXPARAM_MIP_Cuts_CPXPARAM_MIP_Cuts_Gomory-CPXPARAM_MIP_Cuts_LiftProj-CPXPARAM_MIP_Cuts_Covers 0
Instance44
CPXPARAM_MIP_Cuts_CPXPARAM_MIP_Cuts_Gomory-CPXPARAM_MIP_Cuts_LiftProj-CPXPARAM_MIP_Cuts_Covers 4
Instance45
Gap
112.51%
98.57%
98.57%
98.57%
98.57%
CPXPARAM_MIP_Cuts_CPXPARAM_MIP_Cuts_Gomory-CPXPARAM_MIP_Cuts_LiftProj-CPXPARAM_MIP_Cuts_Covers 0
Instance46
CPXPARAM_MIP_Cuts_CPXPARAM_MIP_Cuts_Gomory-CPXPARAM_MIP_Cuts_LiftProj-CPXPARAM_MIP_Cuts_Covers 0
Instance47
CPXPARAM_MIP_Cuts_CPXPARAM_MIP_Cuts_Gomory-CPXPARAM_MIP_Cuts_LiftProj-CPXPARAM_MIP_Cuts_Covers 3
Instance48
Gap



2.32%
2.32%
2.32%
1.64%
1.50%
1.49%
1.46%
1.46%
1.43%
1.43%
0
CPXPARAM_MIP_Cuts_CPXPARAM_MIP_Cuts_Gomory-CPXPARAM_MIP_Cuts_LiftProj-CPXPARAM_MIP_Cuts_Covers 0
Instance49
CPXPARAM_MIP_Cuts_CPXPARAM_MIP_Cuts_Gomory-CPXPARAM_MIP_Cuts_LiftProj-CPXPARAM_MIP_Cuts_Covers 6
Instance50
CPXPARAM_MIP_Cuts_CPXPARAM_MIP_Cuts_Gomory-CPXPARAM_MIP_Cuts_LiftProj-CPXPARAM_MIP_Cuts_Covers 7
Instance51
Gap



48.65%
44.83%
43.37%
42.40%
42.23%
42.14%
42.08%
39.92%
39.72%
37.15%
37.11%
36.05%
36.04%
35.92%
35.81%
35.73%
35.44%
CPXPARAM_MIP_Cuts_CPXPARAM_MIP_Cuts_Gomory-CPXPARAM_MIP_Cuts_LiftProj-CPXPARAM_MIP_Cuts_Covers 0
Instance52
CPXPARAM_MIP_Cuts_CPXPARAM_MIP_Cuts_Gomory-CPXPARAM_MIP_Cuts_LiftProj-CPXPARAM_MIP_Cuts_Covers 15
Instance53
CPXPARAM_MIP_Cuts_CPXPARAM_MIP_Cuts_Gomory-CPXPARAM_MIP_Cuts_LiftProj-CPXPARAM_MIP_Cuts_Covers 0
Instance54
Gap
110.91%
93.14%
93.14%
0.05%
0.05%
0.05%
0
CPXPARAM_MIP_Cuts_CPXPARAM_MIP_Cuts_Gomory-CPXPARAM_MIP_Cuts_LiftProj-CPXPARAM_MIP_Cuts_Covers 0
Instance55
CPXPARAM_MIP_Cuts_CPXPARAM_MIP_Cuts_Gomory-CPXPARAM_MIP_Cuts_LiftProj-CPXPARAM_MIP_Cuts_Covers 1
Instance56
CPXPARAM_MIP_Cuts_CPXPARAM_MIP_Cuts_Gomory-CPXPARAM_MIP_Cuts_LiftProj-CPXPARAM_MIP_Cuts_Covers 2
Instance57
Gap
114.31%
97.72%
0.46%
0.46%
0.46%
0.46%
CPXPARAM_MIP_Cuts_CPXPARAM_MIP_Cuts_Gomory-CPXPARAM_MIP_Cuts_LiftProj-CPXPARAM_MIP_Cuts_Covers 0
Instance58
CPXPARAM_MIP_Cuts_CPXPARAM_MIP_Cuts_Gomory-CPXPARAM_MIP_Cuts_LiftProj-CPXPARAM_MIP_Cuts_Covers 0
Instance59
CPXPARAM_MIP_Cuts_CPXPARAM_MIP_Cuts_Gomory-CPXPARAM_MIP_Cuts_LiftProj-CPXPARAM_MIP_Cuts_Covers 0
Instance60
Gap



5.02%
5.02%
5.02%
3.85%
3.38%
2.73%
2.65%
2.65%
0
CPXPARAM_MIP_Cuts_CPXPARAM_MIP_Cuts_Gomory-CPXPARAM_MIP_Cuts_LiftProj-CPXPARAM_MIP_Cuts_Covers 0
Instance61
CPXPARAM_MIP_Cuts_CPXPARAM_MIP_Cuts_Gomory-CPXPARAM_MIP_Cuts_LiftProj-CPXPARAM_MIP_Cuts_Covers 3
Instance62
CPXPARAM_MIP_Cuts_CPXPARAM_MIP_Cuts_Gomory-CPXPARAM_MIP_Cuts_LiftProj-CPXPARAM_MIP_Cuts_Covers 6
Instance63
Gap



33.12%
25.85%
23.85%
23.31%
22.47%
20.74%
20.50%
19.68%
19.47%
19.25%
19.08%
18.51%
18.19%
17.78%
17.67%
17.48%
17.48%

CPXPARAM_MIP_Cuts_CPXPARAM_MIP_Cuts_Gomory-CPXPARAM_MIP_Cuts_LiftProj-CPXPARAM_MIP_Cuts_Covers 0
Instance64
CPXPARAM_MIP_Cuts_CPXPARAM_MIP_Cuts_Gomory-CPXPARAM_MIP_Cuts_LiftProj-CPXPARAM_MIP_Cuts_Covers 8
Instance65
CPXPARAM_MIP_Cuts_CPXPARAM_MIP_Cuts_Gomory-CPXPARAM_MIP_Cuts_LiftProj-CPXPARAM_MIP_Cuts_Covers 3
Instance66
Gap

0.39%
0.39%
0.39%
0.39%
0.39%
0.39%
0.39%
0.38%
CPXPARAM_MIP_Cuts_CPXPARAM_MIP_Cuts_Gomory-CPXPARAM_MIP_Cuts_LiftProj-CPXPARAM_MIP_Cuts_Covers 0
Instance67
CPXPARAM_MIP_Cuts_CPXPARAM_MIP_Cuts_Gomory-CPXPARAM_MIP_Cuts_LiftProj-CPXPARAM_MIP_Cuts_Covers 2
Instance68
CPXPARAM_MIP_Cuts_CPXPARAM_MIP_Cuts_Gomory-CPXPARAM_MIP_Cuts_LiftProj-CPXPARAM_MIP_Cuts_Covers 7
Instance69
Gap



3.15%
3.15%
3.15%
1.82%
0
CPXPARAM_MIP_Cuts_CPXPARAM_MIP_Cuts_Gomory-CPXPARAM_MIP_Cuts_LiftProj-CPXPARAM_MIP_Cuts_Covers 0
Instance70
CPXPARAM_MIP_Cuts_CPXPARAM_MIP_Cuts_Gomory-CPXPARAM_MIP_Cuts_LiftProj-CPXPARAM_MIP_Cuts_Covers 2
Instance71
CPXPARAM_MIP_Cuts_CPXPARAM_MIP_Cuts_Gomory-CPXPARAM_MIP_Cuts_LiftProj-CPXPARAM_MIP_Cuts_Covers 5
Instance72
Gap

10.00%
10.00%
8.85%
8.85%
8.85%
7.36%
6.63%
5.78%
5.15%
4.91%
4.84%
4.73%
4.55%
4.39%
3.77%
3.35%
3.12%
1.89%
0
CPXPARAM_MIP_Cuts_CPXPARAM_MIP_Cuts_Gomory-CPXPARAM_MIP_Cuts_LiftProj-CPXPARAM_MIP_Cuts_Covers 0
Instance73
CPXPARAM_MIP_Cuts_CPXPARAM_MIP_Cuts_Gomory-CPXPARAM_MIP_Cuts_LiftProj-CPXPARAM_MIP_Cuts_Covers 1
Instance74
CPXPARAM_MIP_Cuts_CPXPARAM_MIP_Cuts_Gomory-CPXPARAM_MIP_Cuts_LiftProj-CPXPARAM_MIP_Cuts_Covers 0
Instance75
Gap



85.95%
80.42%
78.87%
71.29%
66.83%
64.16%
63.76%
62.94%
61.50%
59.27%
57.36%
56.68%
56.29%
56.05%
55.20%
53.28%
52.63%
52.59%
52.29%
52.16%
51.84%
51.58%
51.40%
50.48%
50.40%
50.19%
49.93%
49.76%
49.49%
49.38%
49.04%
49.00%
48.99%
47.76%
CPXPARAM_MIP_Cuts_CPXPARAM_MIP_Cuts_Gomory-CPXPARAM_MIP_Cuts_LiftProj-CPXPARAM_MIP_Cuts_Covers 0
Instance76
CPXPARAM_MIP_Cuts_CPXPARAM_MIP_Cuts_Gomory-CPXPARAM_MIP_Cuts_LiftProj-CPXPARAM_MIP_Cuts_Covers 20
Instance77
CPXPARAM_MIP_Cuts_CPXPARAM_MIP_Cuts_Gomory-CPXPARAM_MIP_Cuts_LiftProj-CPXPARAM_MIP_Cuts_Covers 0
Instance78
Gap
0.00%
CPXPARAM_MIP_Cuts_CPXPARAM_MIP_Cuts_Gomory-CPXPARAM_MIP_Cuts_LiftProj-CPXPARAM_MIP_Cuts_Covers 0
Instance79
CPXPARAM_MIP_Cuts_CPXPARAM_MIP_Cuts_Gomory-CPXPARAM_MIP_Cuts_LiftProj-CPXPARAM_MIP_Cuts_Covers 0
Instance80
CPXPARAM_MIP_Cuts_CPXPARAM_MIP_Cuts_Gomory-CPXPARAM_MIP_Cuts_LiftProj-CPXPARAM_MIP_Cuts_Covers 0
Instance81
Gap

0.42%
0.42%
0.42%
0.42%
0.42%
0.33%
CPXPARAM_MIP_Cuts_CPXPARAM_MIP_Cuts_Gomory-CPXPARAM_MIP_Cuts_LiftProj-CPXPARAM_MIP_Cuts_Covers 0
Instance82
CPXPARAM_MIP_Cuts_CPXPARAM_MIP_Cuts_Gomory-CPXPARAM_MIP_Cuts_LiftProj-CPXPARAM_MIP_Cuts_Covers 0
Instance83
CPXPARAM_MIP_Cuts_CPXPARAM_MIP_Cuts_Gomory-CPXPARAM_MIP_Cuts_LiftProj-CPXPARAM_MIP_Cuts_Covers 2
Instance84
Gap



11.69%
11.69%
11.69%
11.14%
10.83%
9.73%
9.51%
9.13%
8.89%
8.41%
8.23%
7.51%
6.58%
6.58%
6.53%
6.38%
6.30%
6.24%
6.22%
6.02%
5.97%
5.96%
0
CPXPARAM_MIP_Cuts_CPXPARAM_MIP_Cuts_Gomory-CPXPARAM_MIP_Cuts_LiftProj-CPXPARAM_MIP_Cuts_Covers 0
Instance85
CPXPARAM_MIP_Cuts_CPXPARAM_MIP_Cuts_Gomory-CPXPARAM_MIP_Cuts_LiftProj-CPXPARAM_MIP_Cuts_Covers 16
Instance86
CPXPARAM_MIP_Cuts_CPXPARAM_MIP_Cuts_Gomory-CPXPARAM_MIP_Cuts_LiftProj-CPXPARAM_MIP_Cuts_Covers 1
Instance87
Gap
111.49%
406.57%
82.87%
81.66%
79.43%
78.61%
77.93%
77.73%
77.69%
77.13%
75.43%
75.34%
75.27%
74.93%
74.84%
74.36%
73.92%
73.54%
73.14%
72.89%
71.91%
71.41%
70.67%
32.17%
32.17%
32.17%
31.89%
31.81%
30.72%
28.72%
27.57%
26.44%
25.16%
24.31%
23.82%
23.72%
23.52%
23.11%
22.99%
22.70%
22.56%
22.29%
22.26%
22.22%
21.95%
21.81%
21.79%
21.77%
14.77%
CPXPARAM_MIP_Cuts_CPXPARAM_MIP_Cuts_Gomory-CPXPARAM_MIP_Cuts_LiftProj-CPXPARAM_MIP_Cuts_Covers 0
Instance88
CPXPARAM_MIP_Cuts_CPXPARAM_MIP_Cuts_Gomory-CPXPARAM_MIP_Cuts_LiftProj-CPXPARAM_MIP_Cuts_Covers 17
Instance89
CPXPARAM_MIP_Cuts_CPXPARAM_MIP_Cuts_Gomory-CPXPARAM_MIP_Cuts_LiftProj-CPXPARAM_MIP_Cuts_Covers 3
Instance90
Gap
120.75%
227.70%
17.33%
17.33%
17.33%
17.33%
CPXPARAM_MIP_Cuts_CPXPARAM_MIP_Cuts_Gomory-CPXPARAM_MIP_Cuts_LiftProj-CPXPARAM_MIP_Cuts_Covers 0
Instance91
CPXPARAM_MIP_Cuts_CPXPARAM_MIP_Cuts_Gomory-CPXPARAM_MIP_Cuts_LiftProj-CPXPARAM_MIP_Cuts_Covers 2
Instance92
CPXPARAM_MIP_Cuts_CPXPARAM_MIP_Cuts_Gomory-CPXPARAM_MIP_Cuts_LiftProj-CPXPARAM_MIP_Cuts_Covers 3
Instance93
Gap

5.20%
5.20%
5.20%
5.20%
5.20%
5.20%
5.20%
4.96%
CPXPARAM_MIP_Cuts_CPXPARAM_MIP_Cuts_Gomory-CPXPARAM_MIP_Cuts_LiftProj-CPXPARAM_MIP_Cuts_Covers 0
Instance94
CPXPARAM_MIP_Cuts_CPXPARAM_MIP_Cuts_Gomory-CPXPARAM_MIP_Cuts_LiftProj-CPXPARAM_MIP_Cuts_Covers 1
Instance95
CPXPARAM_MIP_Cuts_CPXPARAM_MIP_Cuts_Gomory-CPXPARAM_MIP_Cuts_LiftProj-CPXPARAM_MIP_Cuts_Covers 6
Instance96
Gap




5.63%
5.63%
5.63%
5.34%
4.76%
4.61%
4.50%
4.31%
4.20%
4.15%
4.13%
4.12%
3.94%
3.81%
3.70%
3.69%
3.55%
3.46%
0
CPXPARAM_MIP_Cuts_CPXPARAM_MIP_Cuts_Gomory-CPXPARAM_MIP_Cuts_LiftProj-CPXPARAM_MIP_Cuts_Covers 0
Instance97
CPXPARAM_MIP_Cuts_CPXPARAM_MIP_Cuts_Gomory-CPXPARAM_MIP_Cuts_LiftProj-CPXPARAM_MIP_Cuts_Covers 8
Instance98
CPXPARAM_MIP_Cuts_CPXPARAM_MIP_Cuts_Gomory-CPXPARAM_MIP_Cuts_LiftProj-CPXPARAM_MIP_Cuts_Covers 1
Instance99
Gap





54.22%
48.22%
43.42%
34.64%
28.77%
24.82%
20.27%
20.27%
20.27%
19.46%
15.29%
3.21%
1.46%
0.00%
CPXPARAM_MIP_Cuts_CPXPARAM_MIP_Cuts_Gomory-CPXPARAM_MIP_Cuts_LiftProj-CPXPARAM_MIP_Cuts_Covers 0
Instance100
CPXPARAM_MIP_Cuts_CPXPARAM_MIP_Cuts_Gomory-CPXPARAM_MIP_Cuts_LiftProj-CPXPARAM_MIP_Cuts_Covers 1
Instance101
CPXPARAM_MIP_Cuts_CPXPARAM_MIP_Cuts_Gomory-CPXPARAM_MIP_Cuts_LiftProj-CPXPARAM_MIP_Cuts_Covers 1
Instance102
Gap



0.14%
0.14%
0.09%
0
CPXPARAM_MIP_Cuts_CPXPARAM_MIP_Cuts_Gomory-CPXPARAM_MIP_Cuts_LiftProj-CPXPARAM_MIP_Cuts_Covers 0
Instance103
CPXPARAM_MIP_Cuts_CPXPARAM_MIP_Cuts_Gomory-CPXPARAM_MIP_Cuts_LiftProj-CPXPARAM_MIP_Cuts_Covers 1
Instance104
CPXPARAM_MIP_Cuts_CPXPARAM_MIP_Cuts_Gomory-CPXPARAM_MIP_Cuts_LiftProj-CPXPARAM_MIP_Cuts_Covers 4
Instance105
Gap



2.41%
2.41%
2.41%
0.80%
0
CPXPARAM_MIP_Cuts_CPXPARAM_MIP_Cuts_Gomory-CPXPARAM_MIP_Cuts_LiftProj-CPXPARAM_MIP_Cuts_Covers 0
Instance106
CPXPARAM_MIP_Cuts_CPXPARAM_MIP_Cuts_Gomory-CPXPARAM_MIP_Cuts_LiftProj-CPXPARAM_MIP_Cuts_Covers 0
Instance107
CPXPARAM_MIP_Cuts_CPXPARAM_MIP_Cuts_Gomory-CPXPARAM_MIP_Cuts_LiftProj-CPXPARAM_MIP_Cuts_Covers 4
Instance108
Gap



7.12%
7.12%
7.12%
6.62%
5.91%
5.36%
5.34%
4.82%
4.73%
4.39%
4.24%
4.12%
3.97%
3.75%
3.66%
3.52%
0
CPXPARAM_MIP_Cuts_CPXPARAM_MIP_Cuts_Gomory-CPXPARAM_MIP_Cuts_LiftProj-CPXPARAM_MIP_Cuts_Covers 0
Instance109
CPXPARAM_MIP_Cuts_CPXPARAM_MIP_Cuts_Gomory-CPXPARAM_MIP_Cuts_LiftProj-CPXPARAM_MIP_Cuts_Covers 9
Instance110
CPXPARAM_MIP_Cuts_CPXPARAM_MIP_Cuts_Gomory-CPXPARAM_MIP_Cuts_LiftProj-CPXPARAM_MIP_Cuts_Covers 2
Instance111
Gap















































0
CPXPARAM_MIP_Cuts_CPXPARAM_MIP_Cuts_Gomory-CPXPARAM_MIP_Cuts_LiftProj-CPXPARAM_MIP_Cuts_Covers 1
Instance112
CPXPARAM_MIP_Cuts_CPXPARAM_MIP_Cuts_Gomory-CPXPARAM_MIP_Cuts_LiftProj-CPXPARAM_MIP_Cuts_Covers 21
Instance113
CPXPARAM_MIP_Cuts_CPXPARAM_MIP_Cuts_Gomory-CPXPARAM_MIP_Cuts_LiftProj-CPXPARAM_MIP_Cuts_Covers 0
Instance114
Gap

0.21%
0.21%
0.21%
0.21%
0.00%
CPXPARAM_MIP_Cuts_CPXPARAM_MIP_Cuts_Gomory-CPXPARAM_MIP_Cuts_LiftProj-CPXPARAM_MIP_Cuts_Covers 0
Instance115
CPXPARAM_MIP_Cuts_CPXPARAM_MIP_Cuts_Gomory-CPXPARAM_MIP_Cuts_LiftProj-CPXPARAM_MIP_Cuts_Covers 0
Instance116
CPXPARAM_MIP_Cuts_CPXPARAM_MIP_Cuts_Gomory-CPXPARAM_MIP_Cuts_LiftProj-CPXPARAM_MIP_Cuts_Covers 1
Instance117
Gap



0.50%
0.50%
0.50%
0
CPXPARAM_MIP_Cuts_CPXPARAM_MIP_Cuts_Gomory-CPXPARAM_MIP_Cuts_LiftProj-CPXPARAM_MIP_Cuts_Covers 1
Instance118
CPXPARAM_MIP_Cuts_CPXPARAM_MIP_Cuts_Gomory-CPXPARAM_MIP_Cuts_LiftProj-CPXPARAM_MIP_Cuts_Covers 0
Instance119
CPXPARAM_MIP_Cuts_CPXPARAM_MIP_Cuts_Gomory-CPXPARAM_MIP_Cuts_LiftProj-CPXPARAM_MIP_Cuts_Covers 4
